benchmark/results/graph__10-1000-0.10-02_15/graph__10-1000-0.10-02_15_Quinton_Benders_primal_sub.lp
\ This file has been generated by DOcplex
\ ENCODING=ISO-8859-1
\Problem name: Quinton Benders_primal_sub

Maximize
 obj: tau
Subject To
 c1: tau <= 0.000868809731
 c2: y_a0_proc_0 + y_a0_proc_1 - tau = 0
 c3: y_a0_proc_0 <= 0
 c4: y_a0_proc_1 <= 1
 c5: tau <= 0.000919117647
 c6: y_a1_proc_0 + y_a1_proc_1 - tau = 0
 c7: y_a1_proc_0 <= 0
 c8: y_a1_proc_1 <= 1
 c9: tau <= 0.001270648030
 c10: y_a2_proc_0 + y_a2_proc_1 - tau = 0
 c11: y_a2_proc_0 <= 0
 c12: y_a2_proc_1 <= 1
 c13: tau <= 0.000924214418
 c14: y_a3_proc_0 - tau = 0
 c15: y_a3_proc_0 <= 1
 c16: tau <= 0.001420454545
 c17: y_a4_proc_0 - tau = 0
 c18: y_a4_proc_0 <= 1
 c19: tau <= 0.002123142251
 c20: y_a5_proc_0 + y_a5_proc_1 - tau = 0
 c21: y_a5_proc_0 <= 1
 c22: y_a5_proc_1 <= 0
 c23: tau <= 0.001663893511
 c24: y_a6_proc_0 - tau = 0
 c25: y_a6_proc_0 <= 1
 c26: tau <= 0.001278772379
 c27: y_a7_proc_0 - tau = 0
 c28: y_a7_proc_0 <= 1
 c29: tau <= 0.001015228426
 c30: y_a8_proc_0 - tau = 0
 c31: y_a8_proc_0 <= 1
 c32: tau <= 0.001038421599
 c33: y_a9_proc_0 + y_a9_proc_1 - tau = 0
 c34: y_a9_proc_0 <= 0
 c35: y_a9_proc_1 <= 1
 c36: u_a1 - u_a0 - 1134 y_a0_proc_0 - 1151 y_a0_proc_1 >= 0
 c37: u_a2 - u_a1 - 1103 y_a1_proc_0 - 1088 y_a1_proc_1 >= -1
 c38: u_a1 - u_a3 - 1082 y_a3_proc_0 >= 0
 c39: u_a3 - u_a4 - 704 y_a4_proc_0 >= 0
 c40: u_a5 - u_a1 - 1103 y_a1_proc_0 - 1088 y_a1_proc_1 >= -1
 c41: u_a4 - u_a6 - 601 y_a6_proc_0 >= 0
 c42: u_a7 - u_a0 - 1134 y_a0_proc_0 - 1151 y_a0_proc_1 >= 0
 c43: u_a3 - u_a8 - 985 y_a8_proc_0 >= 0
 c44: u_a7 - u_a9 - 1154 y_a9_proc_0 - 963 y_a9_proc_1 >= 0
 c45: u_a4 - u_a2 - 1039 y_a2_proc_0 - 787 y_a2_proc_1 >= 0
 c46: u_a9 - u_a1 - 1103 y_a1_proc_0 - 1088 y_a1_proc_1 >= -2
 c47: u_a0 - u_a5 - 471 y_a5_proc_0 - 1229 y_a5_proc_1 >= 0
 c48: u_a3 - u_a2 - 1039 y_a2_proc_0 - 787 y_a2_proc_1 >= 0
 c49: u_a9 - u_a7 - 782 y_a7_proc_0 >= -1
 c50: u_a1 - u_a7 - 782 y_a7_proc_0 >= 0
 c51: u_a9 - u_a2 - 1039 y_a2_proc_0 - 787 y_a2_proc_1 >= -1
 c52: u_a1 - u_a0 - 1151 y_a0_proc_1 >= 0
 c53: u_a1 - u_a0 - 1134 y_a0_proc_0 >= -2458
 c54: u_a0 - u_a1 - 1088 y_a1_proc_1 >= -1
 c55: u_a0 - u_a1 - 1103 y_a1_proc_0 >= -2459
 c56: u_a2 - u_a0 - 1151 y_a0_proc_1 >= 0
 c57: u_a2 - u_a0 - 1134 y_a0_proc_0 >= -2458
 c58: u_a0 - u_a2 - 787 y_a2_proc_1 >= -1
 c59: u_a0 - u_a2 - 1039 y_a2_proc_0 >= -2459
 c60: u_a3 - u_a0 - 1134 y_a0_proc_0 >= -2458
 c61: u_a0 - u_a3 - 1082 y_a3_proc_0 >= -1
 c62: u_a4 - u_a0 - 1134 y_a0_proc_0 >= -2458
 c63: u_a0 - u_a4 - 704 y_a4_proc_0 >= -1
 c64: u_a5 - u_a0 - 1151 y_a0_proc_1 >= -2458
 c65: u_a5 - u_a0 - 1134 y_a0_proc_0 >= -2458
 c66: u_a0 - u_a5 - 1229 y_a5_proc_1 >= -1
 c67: u_a0 - u_a5 - 471 y_a5_proc_0 >= -1
 c68: u_a6 - u_a0 - 1134 y_a0_proc_0 >= 0
 c69: u_a0 - u_a6 - 601 y_a6_proc_0 >= -2459
 c70: u_a7 - u_a0 - 1134 y_a0_proc_0 >= -2458
 c71: u_a0 - u_a7 - 782 y_a7_proc_0 >= -1
 c72: u_a8 - u_a0 - 1134 y_a0_proc_0 >= -2458
 c73: u_a0 - u_a8 - 985 y_a8_proc_0 >= -1
 c74: u_a9 - u_a0 - 1151 y_a0_proc_1 >= -1
 c75: u_a9 - u_a0 - 1134 y_a0_proc_0 >= -2459
 c76: u_a0 - u_a9 - 963 y_a9_proc_1 >= 0
 c77: u_a0 - u_a9 - 1154 y_a9_proc_0 >= -2458
 c78: u_a2 - u_a1 - 1088 y_a1_proc_1 >= -1
 c79: u_a2 - u_a1 - 1103 y_a1_proc_0 >= -2459
 c80: u_a1 - u_a2 - 787 y_a2_proc_1 >= 0
 c81: u_a1 - u_a2 - 1039 y_a2_proc_0 >= -2458
 c82: u_a3 - u_a1 - 1103 y_a1_proc_0 >= -2459
 c83: u_a1 - u_a3 - 1082 y_a3_proc_0 >= 0
 c84: u_a4 - u_a1 - 1103 y_a1_proc_0 >= -2459
 c85: u_a1 - u_a4 - 704 y_a4_proc_0 >= 0
 c86: u_a5 - u_a1 - 1088 y_a1_proc_1 >= -2459
 c87: u_a5 - u_a1 - 1103 y_a1_proc_0 >= -2459
 c88: u_a1 - u_a5 - 1229 y_a5_proc_1 >= 0
 c89: u_a1 - u_a5 - 471 y_a5_proc_0 >= 0
 c90: u_a6 - u_a1 - 1103 y_a1_proc_0 >= -2459
 c91: u_a1 - u_a6 - 601 y_a6_proc_0 >= 0
 c92: u_a7 - u_a1 - 1103 y_a1_proc_0 >= -2459
 c93: u_a1 - u_a7 - 782 y_a7_proc_0 >= 0
 c94: u_a8 - u_a1 - 1103 y_a1_proc_0 >= -2459
 c95: u_a1 - u_a8 - 985 y_a8_proc_0 >= 0
 c96: u_a9 - u_a1 - 1088 y_a1_proc_1 >= -2
 c97: u_a9 - u_a1 - 1103 y_a1_proc_0 >= -2460
 c98: u_a1 - u_a9 - 963 y_a9_proc_1 >= 1
 c99: u_a1 - u_a9 - 1154 y_a9_proc_0 >= -2457
 c100: u_a3 - u_a2 - 1039 y_a2_proc_0 >= -2458
 c101: u_a2 - u_a3 - 1082 y_a3_proc_0 >= -1
 c102: u_a4 - u_a2 - 1039 y_a2_proc_0 >= -2458
 c103: u_a2 - u_a4 - 704 y_a4_proc_0 >= -1
 c104: u_a5 - u_a2 - 787 y_a2_proc_1 >= -2459
 c105: u_a5 - u_a2 - 1039 y_a2_proc_0 >= -2459
 c106: u_a2 - u_a5 - 1229 y_a5_proc_1 >= 0
 c107: u_a2 - u_a5 - 471 y_a5_proc_0 >= 0
 c108: u_a6 - u_a2 - 1039 y_a2_proc_0 >= -2459
 c109: u_a2 - u_a6 - 601 y_a6_proc_0 >= 0
 c110: u_a7 - u_a2 - 1039 y_a2_proc_0 >= -2458
 c111: u_a2 - u_a7 - 782 y_a7_proc_0 >= -1
 c112: u_a8 - u_a2 - 1039 y_a2_proc_0 >= -2458
 c113: u_a2 - u_a8 - 985 y_a8_proc_0 >= -1
 c114: u_a9 - u_a2 - 787 y_a2_proc_1 >= -1
 c115: u_a9 - u_a2 - 1039 y_a2_proc_0 >= -2459
 c116: u_a2 - u_a9 - 963 y_a9_proc_1 >= 0
 c117: u_a2 - u_a9 - 1154 y_a9_proc_0 >= -2458
 c118: u_a4 - u_a3 - 1082 y_a3_proc_0 >= -1
 c119: u_a3 - u_a4 - 704 y_a4_proc_0 >= 0
 c120: u_a5 - u_a3 - 1082 y_a3_proc_0 >= -1
 c121: u_a3 - u_a5 - 471 y_a5_proc_0 >= 0
 c122: u_a6 - u_a3 - 1082 y_a3_proc_0 >= -1
 c123: u_a3 - u_a6 - 601 y_a6_proc_0 >= 0
 c124: u_a7 - u_a3 - 1082 y_a3_proc_0 >= 0
 c125: u_a3 - u_a7 - 782 y_a7_proc_0 >= -1
 c126: u_a8 - u_a3 - 1082 y_a3_proc_0 >= -1
 c127: u_a3 - u_a8 - 985 y_a8_proc_0 >= 0
 c128: u_a9 - u_a3 - 1082 y_a3_proc_0 >= -2459
 c129: u_a3 - u_a9 - 1154 y_a9_proc_0 >= 0
 c130: u_a5 - u_a4 - 704 y_a4_proc_0 >= -1
 c131: u_a4 - u_a5 - 471 y_a5_proc_0 >= 0
 c132: u_a6 - u_a4 - 704 y_a4_proc_0 >= -1
 c133: u_a4 - u_a6 - 601 y_a6_proc_0 >= 0
 c134: u_a7 - u_a4 - 704 y_a4_proc_0 >= 0
 c135: u_a4 - u_a7 - 782 y_a7_proc_0 >= -1
 c136: u_a8 - u_a4 - 704 y_a4_proc_0 >= -1
 c137: u_a4 - u_a8 - 985 y_a8_proc_0 >= 0
 c138: u_a9 - u_a4 - 704 y_a4_proc_0 >= -2459
 c139: u_a4 - u_a9 - 1154 y_a9_proc_0 >= 0
 c140: u_a6 - u_a5 - 471 y_a5_proc_0 >= 0
 c141: u_a5 - u_a6 - 601 y_a6_proc_0 >= -1
 c142: u_a7 - u_a5 - 471 y_a5_proc_0 >= 0
 c143: u_a5 - u_a7 - 782 y_a7_proc_0 >= -1
 c144: u_a8 - u_a5 - 471 y_a5_proc_0 >= 0
 c145: u_a5 - u_a8 - 985 y_a8_proc_0 >= -1
 c146: u_a9 - u_a5 - 1229 y_a5_proc_1 >= -2459
 c147: u_a9 - u_a5 - 471 y_a5_proc_0 >= -2459
 c148: u_a5 - u_a9 - 963 y_a9_proc_1 >= 0
 c149: u_a5 - u_a9 - 1154 y_a9_proc_0 >= 0
 c150: u_a7 - u_a6 - 601 y_a6_proc_0 >= 0
 c151: u_a6 - u_a7 - 782 y_a7_proc_0 >= -1
 c152: u_a8 - u_a6 - 601 y_a6_proc_0 >= 0
 c153: u_a6 - u_a8 - 985 y_a8_proc_0 >= -1
 c154: u_a9 - u_a6 - 601 y_a6_proc_0 >= -2459
 c155: u_a6 - u_a9 - 1154 y_a9_proc_0 >= 0
 c156: u_a8 - u_a7 - 782 y_a7_proc_0 >= -1
 c157: u_a7 - u_a8 - 985 y_a8_proc_0 >= 0
 c158: u_a9 - u_a7 - 782 y_a7_proc_0 >= -2459
 c159: u_a7 - u_a9 - 1154 y_a9_proc_0 >= 0
 c160: u_a9 - u_a8 - 985 y_a8_proc_0 >= -2459
 c161: u_a8 - u_a9 - 1154 y_a9_proc_0 >= 0

Bounds
End
