benchmark/results/graph__10-1000-0.10-02_15/graph__10-1000-0.10-02_15_Quinton_Benders_primal_sub.txt
solution for: Quinton Benders_primal_sub
objective: 0.000142288
status: OPTIMAL_SOLUTION(2)
u_a0=0.359
u_a1=1.137
u_a2=0.523
u_a3=0.735
u_a4=0.635
u_a5=0.292
u_a6=0.359
u_a7=0.889
u_a8=0.444
tau=0.000
y_a0_proc_1=0.000
y_a1_proc_1=0.000
y_a2_proc_1=0.000
y_a3_proc_0=0.000
y_a4_proc_0=0.000
y_a5_proc_0=0.000
y_a6_proc_0=0.000
y_a7_proc_0=0.000
y_a8_proc_0=0.000
y_a9_proc_1=0.000
